
Log started (V11.0.0) Sun Apr 13 13:58:26 2008

Tried aggregator 1 time.
Reduced MIP has 230 rows, 6001 columns, and 12030 nonzeros.
Presolve time =    0.05 sec.
Clique table members: 200.
MIP emphasis: balance optimality and feasibility.
MIP search method: dynamic search.
Parallel mode: none, using 1 thread.
Root relaxation solution time =    0.14 sec.

        Nodes                                         Cuts/
   Node  Left     Objective  IInf  Best Integer     Best Node    ItCnt     Gap

*     0+    0                         9441.0000       25.0988      596   99.73%
*     0+    0                           59.0000       25.0988      596   57.46%
      0     0       26.0000    43       59.0000      Fract: 8      605   55.93%
*     0+    0                           42.0000       26.0000      605   38.10%
      0     0       26.0000    42       42.0000   Impl Bds: 1      609   38.10%
*     0+    0                           37.0000       26.0000      609   29.73%
      0     0       26.0000    44       37.0000   Impl Bds: 1      616   29.73%
*     0+    0                           36.0000       26.0000      616   27.78%
*     0+    0                           35.0000       26.0000      616   25.71%
*     0+    0                           34.0000       26.0000      616   23.53%
*     0+    0                           33.0000       26.0000      616   21.21%

Repeating presolve.
Tried aggregator 1 time.
MIP Presolve eliminated 0 rows and 4097 columns.
Reduced MIP has 230 rows, 1904 columns, and 3836 nonzeros.
Tried aggregator 1 time.
Represolve time =    0.08 sec.
Clique table members: 532.
MIP emphasis: balance optimality and feasibility.
MIP search method: dynamic search.
Parallel mode: none, using 1 thread.
Root relaxation solution time =    0.05 sec.

        Nodes                                         Cuts/
   Node  Left     Objective  IInf  Best Integer     Best Node    ItCnt     Gap

      0     0       26.0000    56       33.0000       26.0000      394   21.21%
*     0+    0                           32.0000       26.0000      394   18.75%
*     0+    0                           29.0000       26.0000      394   10.34%
      0     2       26.0000    55       29.0000       26.0000      394   10.34%
    100    87       28.0000    34       29.0000       26.0000     3852   10.34%
*   200+   61                           28.0000       26.0000     6972    7.14%
    200    63       27.0000    35       28.0000       26.0000     6972    7.14%
    300   141       27.0000    43       28.0000       26.0000    11109    7.14%
    400   218       27.0000    52       28.0000       26.0000    17588    7.14%
    500   297       27.0000    34       28.0000       27.0000    22314    3.57%
    600   302        cutoff             28.0000       27.0000    26441    3.57%
    700   311       27.0000    58       28.0000       27.0000    31398    3.57%
    800   320       27.0000    28       28.0000       27.0000    36232    3.57%
    900   343       27.0000    43       28.0000       27.0000    41242    3.57%
   1000   411       27.0000    53       28.0000       27.0000    45819    3.57%
Elapsed time =  16.28 sec. (tree size =  1.88 MB, solutions = 11)
   1100   497       27.0000    53       28.0000       27.0000    49650    3.57%
   1200   573       27.0000    64       28.0000       27.0000    56270    3.57%
   1300   617       27.0000   111       28.0000       27.0000    69116    3.57%
   1400   665       27.0000    95       28.0000       27.0000    86071    3.57%
*  1489+    1                           27.0000       27.0000    93549    0.00%

Clique cuts applied:  3
Cover cuts applied:  406
Flow cuts applied:  2
Mixed integer rounding cuts applied:  34
Zero-half cuts applied:  1
Gomory fractional cuts applied:  5

Solution pool: 12 solutions saved.

MIP - Integer optimal solution:  Objective = 2.7000000000e+001
Solution time =   27.53 sec.  Iterations = 93549  Nodes = 1489


Incumbent solution
Variable Name           Solution Value
Cmax                         27.000000
X_1_3                         1.000000
X_2_4                         1.000000
X_3_4                         1.000000
X_4_15                        1.000000
X_5_21                        1.000000
X_6_8                         1.000000
X_7_29                        1.000000
X_8_21                        1.000000
X_9_1                         1.000000
X_10_29                       1.000000
X_11_26                       1.000000
X_12_2                        1.000000
X_13_30                       1.000000
X_14_16                       1.000000
X_15_27                       1.000000
X_16_8                        1.000000
X_17_9                        1.000000
X_18_5                        1.000000
X_19_2                        1.000000
X_20_25                       1.000000
X_21_24                       1.000000
X_22_6                        1.000000
X_23_18                       1.000000
X_24_21                       1.000000
X_25_9                        1.000000
X_26_22                       1.000000
X_27_8                        1.000000
X_28_26                       1.000000
X_29_7                        1.000000
X_30_5                        1.000000
X_31_6                        1.000000
X_32_9                        1.000000
X_33_13                       1.000000
X_34_17                       1.000000
X_35_21                       1.000000
X_36_1                        1.000000
X_37_28                       1.000000
X_38_17                       1.000000
X_39_3                        1.000000
X_40_9                        1.000000
X_41_7                        1.000000
X_42_30                       1.000000
X_43_3                        1.000000
X_44_30                       1.000000
X_45_8                        1.000000
X_46_13                       1.000000
X_47_17                       1.000000
X_48_16                       1.000000
X_49_30                       1.000000
X_50_4                        1.000000
X_51_25                       1.000000
X_52_28                       1.000000
X_53_9                        1.000000
X_54_7                        1.000000
X_55_5                        1.000000
X_56_13                       1.000000
X_57_8                        1.000000
X_58_10                       1.000000
X_59_23                       1.000000
X_60_20                       1.000000
X_61_27                       1.000000
X_62_13                       1.000000
X_63_22                       1.000000
X_64_12                       1.000000
X_65_14                       1.000000
X_66_16                       1.000000
X_67_8                        1.000000
X_68_11                       1.000000
X_69_11                       1.000000
X_70_15                       1.000000
X_71_13                       1.000000
X_72_12                       1.000000
X_73_26                       1.000000
X_74_12                       1.000000
X_75_2                        1.000000
X_76_7                        1.000000
X_77_19                       1.000000
X_78_11                       1.000000
X_79_14                       1.000000
X_80_6                        1.000000
X_81_27                       1.000000
X_82_26                       1.000000
X_83_2                        1.000000
X_84_9                        1.000000
X_85_28                       1.000000
X_86_20                       1.000000
X_87_5                        1.000000
X_88_20                       1.000000
X_89_22                       1.000000
X_90_3                        1.000000
X_91_29                       1.000000
X_92_18                       1.000000
X_93_1                        1.000000
X_94_20                       1.000000
X_95_18                       1.000000
X_96_8                        1.000000
X_97_7                        1.000000
X_98_26                       1.000000
X_99_4                        1.000000
X_100_10                      1.000000
X_101_11                      1.000000
X_102_17                      1.000000
X_103_5                       1.000000
X_104_11                      1.000000
X_105_5                       1.000000
X_106_15                      1.000000
X_107_18                      1.000000
X_108_9                       1.000000
X_109_30                      1.000000
X_110_1                       1.000000
X_111_19                      1.000000
X_112_18                      1.000000
X_113_25                      1.000000
X_114_20                      1.000000
X_115_27                      1.000000
X_116_18                      1.000000
X_117_12                      1.000000
X_118_11                      1.000000
X_119_4                       1.000000
X_120_26                      1.000000
X_121_16                      1.000000
X_122_3                       1.000000
X_123_20                      1.000000
X_124_20                      1.000000
X_125_15                      1.000000
X_126_10                      1.000000
X_127_9                       1.000000
X_128_4                       1.000000
X_129_24                      1.000000
X_130_23                      1.000000
X_131_25                      1.000000
X_132_20                      1.000000
X_133_15                      1.000000
X_134_16                      1.000000
X_135_24                      1.000000
X_136_20                      1.000000
X_137_16                      1.000000
X_138_3                       1.000000
X_139_12                      1.000000
X_140_11                      1.000000
X_141_23                      1.000000
X_142_8                       1.000000
X_143_9                       1.000000
X_144_13                      1.000000
X_145_7                       1.000000
X_146_17                      1.000000
X_147_23                      1.000000
X_148_16                      1.000000
X_149_29                      1.000000
X_150_25                      1.000000
X_151_2                       1.000000
X_152_30                      1.000000
X_153_10                      1.000000
X_154_6                       1.000000
X_155_2                       1.000000
X_156_28                      1.000000
X_157_26                      1.000000
X_158_27                      1.000000
X_159_3                       1.000000
X_160_2                       1.000000
X_161_25                      1.000000
X_162_10                      1.000000
X_163_19                      1.000000
X_164_19                      1.000000
X_165_16                      1.000000
X_166_8                       1.000000
X_167_1                       1.000000
X_168_16                      1.000000
X_169_29                      1.000000
X_170_19                      1.000000
X_171_10                      1.000000
X_172_14                      1.000000
X_173_1                       1.000000
X_174_2                       1.000000
X_175_5                       1.000000
X_176_5                       1.000000
X_177_26                      1.000000
X_178_22                      1.000000
X_179_4                       1.000000
X_180_6                       1.000000
X_181_6                       1.000000
X_182_1                       1.000000
X_183_6                       1.000000
X_184_7                       1.000000
X_185_20                      1.000000
X_186_4                       1.000000
X_187_13                      1.000000
X_188_23                      1.000000
X_189_19                      1.000000
X_190_29                      1.000000
X_191_28                      1.000000
X_192_27                      1.000000
X_193_19                      1.000000
X_194_29                      1.000000
X_195_12                      1.000000
X_196_23                      1.000000
X_197_19                      1.000000
X_198_17                      1.000000
X_199_1                       1.000000
X_200_4                       1.000000
All other variables in the range 1-6001 are 0.
